p cnf 10 21
-10 -9 2 0
-10 8 7 0
-10 -5 2 0
-9 -8 3 0
9 7 -6 0
-9 6 4 0
-9 6 3 0
9 -6 3 0
9 -2 -1 0
8 7 -3 0
-8 -6 -4 0
8 -6 3 0
8 -5 3 0
8 -3 -1 0
-7 -6 -5 0
-7 -5 4 0
-7 -5 -1 0
-5 -4 -3 0
5 3 2 0
-4 -3 -2 0
-4 2 -1 0
